p cnf 7 27
3 -4 -3 7 0
-5 6 0
1 -4 4 0
2 3 5 -1 0
3 -5 5 0
3 -6 -5 0
-6 0
3 -5 -4 -2 0
2 -6 0
1 4 -3 0
1 -3 0
-7 0
1 -6 5 7 0
1 -5 -4 5 0
4 0
3 4 0
3 7 0
-6 -3 -1 7 0
4 0
2 3 -3 -5 0
1 5 6 7 0
-7 3 6 -2 0
5 0
1 -4 0
1 -7 0
2 -3 6 0
1 -5 0
